$molecule
0 1
O       0.0000000000    -0.0000000000     0.1174000000
H      -0.7570000000    -0.0000000000    -0.4696000000
H       0.7570000000     0.0000000000    -0.4696000000
$end

$rem
JOBTYPE  sp
METHOD  B3LYP
DFT_D D3_BJ
BASIS   def2-tzvpp
SCF_CONVERGENCE  10
THRESH  14
RI_J    TRUE
RI_K    TRUE
AUX_BASIS RIJK-def2-tzvpp
PURECART 1111
$end

